NAME: concorde91
TYPE: TSP
DIMENSION: 15 
EDGE_WEIGHT_TYPE: EUC_2D
NODE_COORD_SECTION
1 82 88
2 2 86
3 68 85
4 83 32
5 81 55
6 85 74
7 18 81
8 9 20
9 45 88
10 60 40
11 87 99
12 85 56
13 70 91
14 65 72
15 66 23
